#p scan rhf/sto-3g

title

0 1
H 
H 1 R

R 0.5 40 0.1

